100
84 21 90 168 126 42 27 81 189 36 72 189 63 126 105 90 126 90 81 126 126 42 189 9 27 105 210 105 147 36 36 210 21 72 63 42 9 81 72 21 90 45 63 63 105 36 84 21 168 63 210 63 21 147 21 27 18 168 210 63 21 27 189 21 63 27 42 90 210 90 72 105 27 81 36 72 81 63 27 210 90 147 189 90 21 63 72 63 210 189 81 81 189 147 81 45 21 126 81 42 
484 121 1090 968 726 242 327 981 1089 436 872 1089 763 726 605 1090 726 1090 981 726 726 242 1089 109 327 605 1210 605 847 436 436 1210 121 872 363 242 109 981 872 121 1090 545 763 363 605 436 484 121 968 363 1210 363 121 847 121 327 218 968 1210 363 121 327 1089 121 363 327 242 1090 1210 1090 872 605 327 981 436 872 981 763 327 1210 1090 847 1089 1090 121 763 872 363 1210 1089 981 981 1089 847 981 545 121 726 981 242 
4367
